(set-option :produce-models true); benchmark generated from python API
(set-info :status unknown)
(declare-fun l_1_0_9 () Real)
(declare-fun l_1_0_8 () Real)
(declare-fun l_1_0_7 () Real)
(declare-fun l_1_0_6 () Real)
(declare-fun l_1_0_5 () Real)
(declare-fun l_1_0_4 () Real)
(declare-fun l_1_0_3 () Real)
(declare-fun l_1_0_2 () Real)
(declare-fun l_1_0_17 () Real)
(declare-fun l_1_0_16 () Real)
(declare-fun l_1_0_14 () Real)
(declare-fun l_1_0_13 () Real)
(declare-fun l_1_0_12 () Real)
(declare-fun l_1_0_11 () Real)
(declare-fun l_1_0_10 () Real)
(declare-fun l_1_0_1 () Real)
(declare-fun _a_0_ () Real)
(declare-fun l_1_0_19 () Real)
(declare-fun l_1_0_18 () Real)
(declare-fun _a_1_ () Real)
(declare-fun l_1_0_20 () Real)
(declare-fun _a_2_ () Real)
(declare-fun l_1_0_15 () Real)
(declare-fun _a_3_ () Real)
(declare-fun _a_4_ () Real)
(declare-fun _a_5_ () Real)
(declare-fun l_1_1_9 () Real)
(declare-fun l_1_1_8 () Real)
(declare-fun l_1_1_5 () Real)
(declare-fun l_1_1_4 () Real)
(declare-fun l_1_1_3 () Real)
(declare-fun l_1_1_17 () Real)
(declare-fun l_1_1_16 () Real)
(declare-fun l_1_1_14 () Real)
(declare-fun l_1_1_13 () Real)
(declare-fun l_1_1_12 () Real)
(declare-fun l_1_1_10 () Real)
(declare-fun l_1_1_7 () Real)
(declare-fun l_1_1_6 () Real)
(declare-fun l_1_1_2 () Real)
(declare-fun l_1_1_11 () Real)
(declare-fun l_1_1_1 () Real)
(declare-fun l_1_1_20 () Real)
(declare-fun l_1_1_19 () Real)
(declare-fun l_1_1_18 () Real)
(declare-fun l_1_1_15 () Real)
(declare-fun l_1_2_9 () Real)
(declare-fun l_1_2_7 () Real)
(declare-fun l_1_2_6 () Real)
(declare-fun l_1_2_4 () Real)
(declare-fun l_1_2_3 () Real)
(declare-fun l_1_2_17 () Real)
(declare-fun l_1_2_16 () Real)
(declare-fun l_1_2_14 () Real)
(declare-fun l_1_2_13 () Real)
(declare-fun l_1_2_11 () Real)
(declare-fun l_1_2_10 () Real)
(declare-fun l_1_2_8 () Real)
(declare-fun l_1_2_5 () Real)
(declare-fun l_1_2_2 () Real)
(declare-fun l_1_2_12 () Real)
(declare-fun l_1_2_1 () Real)
(declare-fun l_1_2_20 () Real)
(declare-fun l_1_2_19 () Real)
(declare-fun l_1_2_18 () Real)
(declare-fun l_1_2_15 () Real)
(assert
 (let ((?x1464 (* (/ 7.0 20.0) l_1_0_9)))
 (let ((?x56 (* (/ 7.0 20.0) l_1_0_8)))
 (let ((?x1620 (* (/ 49.0 400.0) l_1_0_6)))
 (let ((?x50 (* (/ 7.0 20.0) l_1_0_5)))
 (let ((?x1075 (* (/ 7.0 20.0) l_1_0_4)))
 (let ((?x1767 (* (/ 7.0 20.0) l_1_0_3)))
 (let ((?x1768 (* (/ 49.0 400.0) l_1_0_2)))
 (let ((?x1769 (* l_1_0_17 l_1_0_17)))
 (let ((?x1770 (* l_1_0_16 l_1_0_16)))
 (let ((?x55 (* (/ 7.0 20.0) l_1_0_13)))
 (let ((?x59 (* (/ 49.0 400.0) l_1_0_11)))
 (let ((?x58 (- (- (- (- _a_0_ (* (/ 49.0 400.0) l_1_0_1)) l_1_0_10) ?x59) l_1_0_12)))
 (let ((?x1740 (+ (+ (- (- (- (- (+ ?x58 ?x55) l_1_0_14) ?x1770) ?x1769) ?x1768) ?x1767) ?x1075)))
 (= (+ (+ (- (- (+ ?x1740 ?x50) ?x1620) l_1_0_7) ?x56) ?x1464) 0.0)))))))))))))))
(assert
 (let ((?x1532 (* (/ 6.0 5.0) l_1_0_8)))
 (let ((?x1531 (* (/ 21.0 25.0) l_1_0_6)))
 (let ((?x1525 (* (/ 6.0 5.0) l_1_0_5)))
 (let ((?x1120 (* (/ 21.0 50.0) l_1_0_2)))
 (let ((?x1592 (- (- (+ _a_1_ (* (/ 21.0 50.0) l_1_0_11)) (* (/ 6.0 5.0) l_1_0_13)) (* (* 2.0 l_1_0_16) l_1_0_18))))
 (let ((?x60 (+ (- (+ (- ?x1592 (* (* 2.0 l_1_0_17) l_1_0_19)) ?x1120) ?x1525) ?x1531)))
 (= (- ?x60 ?x1532) 0.0))))))))
(assert
 (let ((?x1409 (* (/ 107.0 50.0) l_1_0_6)))
 (let ((?x1406 (* l_1_0_20 l_1_0_20)))
 (let ((?x1404 (* (/ 7.0 20.0) l_1_0_2)))
 (let ((?x1354 (* l_1_0_19 l_1_0_19)))
 (let ((?x1401 (* l_1_0_18 l_1_0_18)))
 (let ((?x1405 (- (- (- (+ (- _a_2_ (* (/ 7.0 20.0) l_1_0_11)) l_1_0_13) ?x1401) ?x1354) ?x1404)))
 (= (+ (- (+ (- ?x1405 ?x1406) l_1_0_5) ?x1409) l_1_0_8) 0.0))))))))
(assert
 (let ((?x1404 (* (/ 7.0 20.0) l_1_0_2)))
 (let ((?x1326 (* l_1_0_15 l_1_0_15)))
 (let ((?x1264 (- (- (- (- _a_3_ (* (/ 107.0 50.0) l_1_0_1)) (* (/ 7.0 20.0) l_1_0_11)) ?x1326) ?x1404)))
 (= (+ (+ (+ ?x1264 l_1_0_3) l_1_0_4) l_1_0_9) 0.0)))))
(assert
 (let ((?x1175 (* (/ 6.0 5.0) l_1_0_9)))
 (let ((?x1173 (* (/ 6.0 5.0) l_1_0_4)))
 (let ((?x1171 (* (/ 6.0 5.0) l_1_0_3)))
 (let ((?x1120 (* (/ 21.0 50.0) l_1_0_2)))
 (let ((?x1169 (- (+ (+ _a_4_ (* (/ 21.0 25.0) l_1_0_1)) (* (/ 21.0 50.0) l_1_0_11)) (* (* 2.0 l_1_0_15) l_1_0_16))))
 (= (- (- (- (+ ?x1169 ?x1120) ?x1171) ?x1173) ?x1175) 0.0)))))))
(assert
 (let ((?x1131 (* (/ 36.0 25.0) l_1_0_2)))
 (let ((?x1130 (- (- _a_5_ (* (/ 36.0 25.0) l_1_0_11)) (* (* 2.0 l_1_0_15) l_1_0_18))))
 (= (- ?x1130 ?x1131) 0.0))))
(assert
 (= (* (/ 12.0 5.0) l_1_0_1) 0.0))
(assert
 (= (- l_1_0_1) 0.0))
(assert
 (= (+ (* (/ 6.0 5.0) l_1_0_11) (* (/ 6.0 5.0) l_1_0_2)) 0.0))
(assert
 (= (+ (* (/ 6.0 5.0) l_1_0_11) (* (/ 6.0 5.0) l_1_0_2)) 0.0))
(assert
 (= (- (- l_1_0_11) l_1_0_2) 0.0))
(assert
 (= (* (/ 12.0 5.0) l_1_0_6) 0.0))
(assert
 (= (- l_1_0_6) 0.0))
(assert
 (>= l_1_0_1 0.0))
(assert
 (>= l_1_0_2 0.0))
(assert
 (>= l_1_0_3 0.0))
(assert
 (>= l_1_0_4 0.0))
(assert
 (>= l_1_0_5 0.0))
(assert
 (>= l_1_0_6 0.0))
(assert
 (>= l_1_0_7 0.0))
(assert
 (>= l_1_0_8 0.0))
(assert
 (>= l_1_0_9 0.0))
(assert
 (>= l_1_0_10 0.0))
(assert
 (>= l_1_0_11 0.0))
(assert
 (>= l_1_0_12 0.0))
(assert
 (>= l_1_0_13 0.0))
(assert
 (>= l_1_0_14 0.0))
(assert
 (>= l_1_0_15 0.0))
(assert
 (>= l_1_0_17 0.0))
(assert
 (>= l_1_0_20 0.0))
(assert
 (let ((?x929 (* l_1_1_17 l_1_1_17)))
 (let ((?x975 (* l_1_1_16 l_1_1_16)))
 (let ((?x1018 (* _a_0_ l_1_1_2)))
 (let ((?x968 (+ (- (- (* (- _a_0_) l_1_1_1) (* _a_0_ l_1_1_11)) ?x1018) (* (* 1.0 _a_0_) l_1_1_6))))
 (let ((?x972 (- (- (+ ?x968 (* (* 1.0 _a_0_) l_1_1_7)) (* 1.0 l_1_1_10)) l_1_1_12)))
 (let ((?x517 (- (- (- (- (- ?x972 l_1_1_13) l_1_1_14) ?x975) ?x929) (* (* l_1_1_3 _a_0_) _a_0_))))
 (let ((?x764 (+ (+ (+ ?x517 (* 1.0 l_1_1_4)) (* 1.0 l_1_1_5)) (* 1.0 l_1_1_8))))
 (= (+ (- ?x764 l_1_1_9) (/ 9.0 25.0)) 0.0)))))))))
(assert
 (let ((?x658 (* l_1_1_20 l_1_1_20)))
 (let ((?x656 (* l_1_1_19 l_1_1_19)))
 (let ((?x704 (* l_1_1_18 l_1_1_18)))
 (let ((?x659 (* 2.0 l_1_1_10)))
 (let ((?x699 (* _a_2_ l_1_1_2)))
 (let ((?x703 (+ (- (- (* (- _a_2_) l_1_1_1) (* _a_2_ l_1_1_11)) ?x699) ?x659)))
 (let ((?x606 (- (- (- (- ?x703 ?x704) ?x656) ?x658) (* l_1_1_3 (+ (* (* 2.0 _a_0_) _a_2_) (* _a_1_ _a_1_))))))
 (let ((?x615 (- (- (- ?x606 l_1_1_4) l_1_1_5) (* l_1_1_6 (- _a_0_ (* 1.0 _a_2_))))))
 (let ((?x486 (- (- (- ?x615 (* l_1_1_7 (- _a_0_ (* 1.0 _a_2_)))) l_1_1_8) 1.0)))
 (= ?x486 0.0)))))))))))
(assert
 (let ((?x180 (* l_1_1_15 l_1_1_15)))
 (let ((?x659 (* 2.0 l_1_1_10)))
 (let ((?x21 (* _a_3_ l_1_1_2)))
 (let ((?x432 (+ (- (- (* (- _a_3_) l_1_1_1) (* _a_3_ l_1_1_11)) ?x21) ?x659)))
 (let ((?x399 (- (- ?x432 ?x180) (* l_1_1_3 (+ (* (* 2.0 _a_0_) _a_3_) (* _a_4_ _a_4_))))))
 (let ((?x405 (- (- (- ?x399 l_1_1_4) l_1_1_5) (* l_1_1_6 (- _a_0_ (* 1.0 _a_3_))))))
 (let ((?x409 (- (- (- ?x405 (* l_1_1_7 (- _a_0_ (* 1.0 _a_3_)))) l_1_1_8) 1.0)))
 (= ?x409 0.0)))))))))
(assert
 (let ((?x175 (* _a_1_ l_1_1_2)))
 (let ((?x244 (* _a_1_ l_1_1_11)))
 (let ((?x243 (* _a_1_ l_1_1_1)))
 (let ((?x176 (- (- (- (* (* (* (- 2.0) _a_0_) _a_1_) l_1_1_3) ?x243) ?x244) ?x175)))
 (let ((?x183 (+ (+ ?x176 (* (* 1.0 _a_1_) l_1_1_6)) (* (* 1.0 _a_1_) l_1_1_7))))
 (let ((?x188 (- (- ?x183 (* (* 2.0 l_1_1_16) l_1_1_18)) (* (* 2.0 l_1_1_17) l_1_1_19))))
 (= ?x188 0.0))))))))
(assert
 (let ((?x134 (* _a_4_ l_1_1_2)))
 (let ((?x132 (* _a_4_ l_1_1_11)))
 (let ((?x130 (* _a_4_ l_1_1_1)))
 (let ((?x135 (- (- (- (* (* (* (- 2.0) _a_0_) _a_4_) l_1_1_3) ?x130) ?x132) ?x134)))
 (let ((?x67 (+ (+ ?x135 (* (* 1.0 _a_4_) l_1_1_6)) (* (* 1.0 _a_4_) l_1_1_7))))
 (= (- ?x67 (* (* 2.0 l_1_1_15) l_1_1_16)) 0.0)))))))
(assert
 (let ((?x1102 (+ (* (* 2.0 _a_0_) _a_5_) (* (* 2.0 _a_1_) _a_4_))))
 (let ((?x1697 (* _a_5_ l_1_1_2)))
 (let ((?x214 (+ (- (- (* (- _a_5_) l_1_1_1) (* _a_5_ l_1_1_11)) ?x1697) (* (* 1.0 _a_5_) l_1_1_6))))
 (let ((?x714 (- (+ ?x214 (* (* 1.0 _a_5_) l_1_1_7)) (* (* 2.0 l_1_1_15) l_1_1_18))))
 (= (- ?x714 (* l_1_1_3 ?x1102)) 0.0))))))
(assert
 (let ((?x202 (* _a_1_ l_1_1_7)))
 (let ((?x200 (* _a_1_ l_1_1_6)))
 (= (- (- (* (* (* (- 2.0) _a_1_) _a_2_) l_1_1_3) ?x200) ?x202) 0.0))))
(assert
 (let ((?x830 (+ (* (* 2.0 _a_1_) _a_3_) (* (* 2.0 _a_4_) _a_5_))))
 (let ((?x842 (- (- (* (- _a_1_) l_1_1_6) (* _a_1_ l_1_1_7)) (* l_1_1_3 ?x830))))
 (= ?x842 0.0))))
(assert
 (let ((?x945 (+ (* (* 2.0 _a_1_) _a_5_) (* (* 2.0 _a_2_) _a_4_))))
 (let ((?x947 (- (- (* (- _a_4_) l_1_1_6) (* _a_4_ l_1_1_7)) (* l_1_1_3 ?x945))))
 (= ?x947 0.0))))
(assert
 (let ((?x1083 (- (- (- (* (- _a_2_) l_1_1_6) (* _a_2_ l_1_1_7)) l_1_1_10) (* (* l_1_1_3 _a_2_) _a_2_))))
 (= ?x1083 0.0)))
(assert
 (let ((?x237 (* (- 2.0) l_1_1_10)))
 (let ((?x1500 (- ?x237 (* l_1_1_3 (+ (* (* 2.0 _a_2_) _a_3_) (* _a_5_ _a_5_))))))
 (let ((?x1513 (- (- ?x1500 (* l_1_1_6 (+ _a_2_ _a_3_))) (* l_1_1_7 (+ _a_2_ _a_3_)))))
 (= ?x1513 0.0)))))
(assert
 (let ((?x1431 (* _a_5_ l_1_1_7)))
 (let ((?x1429 (* _a_5_ l_1_1_6)))
 (= (- (- (* (* (* (- 2.0) _a_2_) _a_5_) l_1_1_3) ?x1429) ?x1431) 0.0))))
(assert
 (let ((?x578 (- (- (- (* (- _a_3_) l_1_1_6) (* _a_3_ l_1_1_7)) l_1_1_10) (* (* l_1_1_3 _a_3_) _a_3_))))
 (= ?x578 0.0)))
(assert
 (let ((?x992 (* _a_4_ l_1_1_7)))
 (let ((?x986 (* _a_4_ l_1_1_6)))
 (= (- (- (* (* (* (- 2.0) _a_3_) _a_4_) l_1_1_3) ?x986) ?x992) 0.0))))
(assert
 (let ((?x1431 (* _a_5_ l_1_1_7)))
 (let ((?x1429 (* _a_5_ l_1_1_6)))
 (= (- (- (* (* (* (- 2.0) _a_3_) _a_5_) l_1_1_3) ?x1429) ?x1431) 0.0))))
(assert
 (>= l_1_1_1 0.0))
(assert
 (>= l_1_1_2 0.0))
(assert
 (>= l_1_1_3 0.0))
(assert
 (>= l_1_1_4 0.0))
(assert
 (>= l_1_1_5 0.0))
(assert
 (>= l_1_1_6 0.0))
(assert
 (>= l_1_1_7 0.0))
(assert
 (>= l_1_1_8 0.0))
(assert
 (>= l_1_1_9 0.0))
(assert
 (>= l_1_1_10 0.0))
(assert
 (>= l_1_1_11 0.0))
(assert
 (>= l_1_1_12 0.0))
(assert
 (>= l_1_1_13 0.0))
(assert
 (>= l_1_1_14 0.0))
(assert
 (>= l_1_1_15 0.0))
(assert
 (>= l_1_1_17 0.0))
(assert
 (>= l_1_1_20 0.0))
(assert
 (let ((?x1616 (* l_1_2_17 l_1_2_17)))
 (let ((?x1611 (* l_1_2_16 l_1_2_16)))
 (let ((?x748 (* _a_0_ l_1_2_5)))
 (let ((?x753 (* _a_0_ l_1_2_2)))
 (let ((?x754 (- (- (* (- _a_0_) l_1_2_1) (* (* 1.0 _a_0_) l_1_2_12)) ?x753)))
 (let ((?x1596 (- (+ (- (- ?x754 ?x748) (* (* 1.0 _a_0_) l_1_2_8)) _a_0_) l_1_2_10)))
 (let ((?x1617 (- (- (- (- (- ?x1596 l_1_2_11) (* 1.0 l_1_2_13)) l_1_2_14) ?x1611) ?x1616)))
 (let ((?x1295 (- (- (- ?x1617 l_1_2_3) (* (* l_1_2_4 _a_0_) _a_0_)) (* 1.0 l_1_2_6))))
 (= (- (- ?x1295 (* 1.0 l_1_2_7)) (* 1.0 l_1_2_9)) 0.0))))))))))
(assert
 (let ((?x917 (* 2.0 l_1_2_9)))
 (let ((?x778 (* l_1_2_20 l_1_2_20)))
 (let ((?x776 (* l_1_2_19 l_1_2_19)))
 (let ((?x551 (* l_1_2_18 l_1_2_18)))
 (let ((?x1576 (* (/ 3.0 5.0) _a_4_)))
 (let ((?x1579 (* _a_2_ l_1_2_5)))
 (let ((?x1568 (* _a_2_ l_1_2_2)))
 (let ((?x1577 (- (- (- (- (* (/ 1.0 2.0) _a_1_) (* _a_2_ l_1_2_1)) ?x1568) ?x1579) ?x1576)))
 (let ((?x775 (+ (- ?x1577 (* l_1_2_12 (+ (- _a_0_) (* 1.0 _a_2_)))) l_1_2_13)))
 (let ((?x919 (- (- (- (- ?x775 ?x551) ?x776) ?x778) (* l_1_2_4 (+ (* (* 2.0 _a_0_) _a_2_) (* _a_1_ _a_1_))))))
 (let ((?x916 (- (+ (+ ?x919 l_1_2_6) l_1_2_7) (* l_1_2_8 (+ (- _a_0_) (* 1.0 _a_2_))))))
 (= (+ ?x916 ?x917) 0.0)))))))))))))
(assert
 (let ((?x917 (* 2.0 l_1_2_9)))
 (let ((?x1059 (* l_1_2_15 l_1_2_15)))
 (let ((?x249 (* (/ 3.0 10.0) _a_4_)))
 (let ((?x1508 (* _a_3_ l_1_2_5)))
 (let ((?x635 (* _a_3_ l_1_2_2)))
 (let ((?x282 (+ (- (- (- (* (/ 2.0 5.0) _a_1_) (* _a_3_ l_1_2_1)) ?x635) ?x1508) ?x249)))
 (let ((?x1060 (+ (- ?x282 (* l_1_2_12 (+ (- _a_0_) (* 1.0 _a_3_)))) l_1_2_13)))
 (let ((?x570 (- (- ?x1060 ?x1059) (* l_1_2_4 (+ (* (* 2.0 _a_0_) _a_3_) (* _a_4_ _a_4_))))))
 (let ((?x1010 (- (+ (+ ?x570 l_1_2_6) l_1_2_7) (* l_1_2_8 (+ (- _a_0_) (* 1.0 _a_3_))))))
 (= (+ ?x1010 ?x917) 0.0)))))))))))
(assert
 (let ((?x1679 (* (/ 3.0 10.0) _a_5_)))
 (let ((?x1427 (* (/ 9.0 25.0) _a_3_)))
 (let ((?x1433 (* (/ 1.0 4.0) _a_2_)))
 (let ((?x1674 (- (+ (+ (+ (* _a_2_ l_1_2_12) (* _a_2_ l_1_2_8)) ?x1433) ?x1427) ?x1679)))
 (= (- (- ?x1674 (* (* l_1_2_4 _a_2_) _a_2_)) l_1_2_9) 0.0))))))
(assert
 (let ((?x917 (* 2.0 l_1_2_9)))
 (let ((?x648 (- (- (- (* (/ 2.0 5.0) _a_2_) (* (/ 9.0 25.0) _a_3_)) (* (/ 9.0 100.0) _a_5_)) (* l_1_2_12 (- (- _a_2_) _a_3_)))))
 (let ((?x1690 (- ?x648 (* l_1_2_4 (+ (* (* 2.0 _a_2_) _a_3_) (* _a_5_ _a_5_))))))
 (= (- (- ?x1690 (* l_1_2_8 (- (- _a_2_) _a_3_))) ?x917) 0.0)))))
(assert
 (let ((?x1489 (* (/ 3.0 25.0) _a_5_)))
 (let ((?x1704 (* (/ 9.0 100.0) _a_3_)))
 (let ((?x797 (* _a_3_ l_1_2_8)))
 (let ((?x293 (+ (+ (+ (+ (* (/ 4.0 25.0) _a_2_) (* _a_3_ l_1_2_12)) ?x797) ?x1704) ?x1489)))
 (= (- (- ?x293 (* (* l_1_2_4 _a_3_) _a_3_)) l_1_2_9) 0.0))))))
(assert
 (let ((?x328 (* _a_1_ l_1_2_5)))
 (let ((?x326 (* _a_1_ l_1_2_2)))
 (let ((?x225 (* _a_1_ l_1_2_1)))
 (let ((?x325 (- (- (* (* (* (- 2.0) _a_0_) _a_1_) l_1_2_4) ?x225) (* (* 1.0 _a_1_) l_1_2_12))))
 (let ((?x1651 (- (- (- (- ?x325 ?x326) ?x328) (* (* 1.0 _a_1_) l_1_2_8)) (* (* 2.0 l_1_2_16) l_1_2_18))))
 (= (- ?x1651 (* (* 2.0 l_1_2_17) l_1_2_19)) 0.0)))))))
(assert
 (let ((?x1243 (* _a_4_ l_1_2_5)))
 (let ((?x1764 (* _a_4_ l_1_2_2)))
 (let ((?x1760 (* _a_4_ l_1_2_1)))
 (let ((?x1763 (- (- (* (* (* (- 2.0) _a_0_) _a_4_) l_1_2_4) ?x1760) (* (* 1.0 _a_4_) l_1_2_12))))
 (let ((?x254 (- (- (- (- ?x1763 ?x1764) ?x1243) (* (* 1.0 _a_4_) l_1_2_8)) (* (* 2.0 l_1_2_15) l_1_2_16))))
 (= ?x254 0.0)))))))
(assert
 (let ((?x1102 (+ (* (* 2.0 _a_0_) _a_5_) (* (* 2.0 _a_1_) _a_4_))))
 (let ((?x456 (* _a_5_ l_1_2_5)))
 (let ((?x422 (* _a_5_ l_1_2_2)))
 (let ((?x451 (- (- (* (- _a_5_) l_1_2_1) (* (* 1.0 _a_5_) l_1_2_12)) ?x422)))
 (let ((?x1289 (- (- (- ?x451 ?x456) (* (* 1.0 _a_5_) l_1_2_8)) (* (* 2.0 l_1_2_15) l_1_2_18))))
 (= (- ?x1289 (* l_1_2_4 ?x1102)) 0.0)))))))
(assert
 (let ((?x1222 (* _a_1_ l_1_2_8)))
 (let ((?x1726 (* _a_1_ l_1_2_12)))
 (= (+ (+ (* (* (* (- 2.0) _a_1_) _a_2_) l_1_2_4) ?x1726) ?x1222) 0.0))))
(assert
 (let ((?x830 (+ (* (* 2.0 _a_1_) _a_3_) (* (* 2.0 _a_4_) _a_5_))))
 (let ((?x1311 (- (+ (* _a_1_ l_1_2_12) (* _a_1_ l_1_2_8)) (* l_1_2_4 ?x830))))
 (= ?x1311 0.0))))
(assert
 (let ((?x945 (+ (* (* 2.0 _a_1_) _a_5_) (* (* 2.0 _a_2_) _a_4_))))
 (let ((?x1070 (* _a_4_ l_1_2_8)))
 (let ((?x153 (* _a_4_ l_1_2_12)))
 (let ((?x1394 (+ ?x153 ?x1070)))
 (= (- ?x1394 (* l_1_2_4 ?x945)) 0.0))))))
(assert
 (let ((?x740 (* _a_5_ l_1_2_8)))
 (let ((?x1518 (* _a_5_ l_1_2_12)))
 (= (+ (+ (* (* (* (- 2.0) _a_2_) _a_5_) l_1_2_4) ?x1518) ?x740) 0.0))))
(assert
 (let ((?x1070 (* _a_4_ l_1_2_8)))
 (let ((?x153 (* _a_4_ l_1_2_12)))
 (= (+ (+ (* (* (* (- 2.0) _a_3_) _a_4_) l_1_2_4) ?x153) ?x1070) 0.0))))
(assert
 (let ((?x740 (* _a_5_ l_1_2_8)))
 (let ((?x1518 (* _a_5_ l_1_2_12)))
 (= (+ (+ (* (* (* (- 2.0) _a_3_) _a_5_) l_1_2_4) ?x1518) ?x740) 0.0))))
(assert
 (>= l_1_2_1 0.0))
(assert
 (>= l_1_2_2 0.0))
(assert
 (>= l_1_2_3 0.0))
(assert
 (>= l_1_2_4 0.0))
(assert
 (>= l_1_2_5 0.0))
(assert
 (>= l_1_2_6 0.0))
(assert
 (>= l_1_2_7 0.0))
(assert
 (>= l_1_2_8 0.0))
(assert
 (>= l_1_2_9 0.0))
(assert
 (>= l_1_2_10 0.0))
(assert
 (>= l_1_2_11 0.0))
(assert
 (>= l_1_2_12 0.0))
(assert
 (>= l_1_2_13 0.0))
(assert
 (>= l_1_2_14 0.0))
(assert
 (>= l_1_2_15 0.0))
(assert
 (>= l_1_2_17 0.0))
(assert
 (>= l_1_2_20 0.0))
(check-sat)
(get-model)